(set-logic LIA)
(set-info :license "https://creativecommons.org/licenses/by/4.0/")
(set-info :status "unknown")
(set-info :smt-lib-version "2.6")
(declare-fun old(~a29~0) () Int)
(declare-fun ~a29~0 () Int)
(assert
  (and
    (not
      (exists ((v_~a29~0_1040 Int) (quotient_0 Int) (quotient_1 Int))
        (and
          (<= (* (- 1) v_~a29~0_1040) 0)
          (<= (* (- 1) quotient_0) (- 403019))
          (<= (+ (* (- 1) old(~a29~0)) (* 1 v_~a29~0_1040)) 0)
          (<= (+ (* 1 ~a29~0) (* (- 1) quotient_1)) 0)
          (<= (+ (* (- 1) v_~a29~0_1040) (* 5 quotient_0)) 0)
          (<= (+ (* 1 v_~a29~0_1040) (* (- 5) quotient_0)) 4)
          (<= (+ (* (- 1) quotient_0) (* 5 quotient_1)) (- 403019))
          (<= (+ (* 1 quotient_0) (* (- 5) quotient_1)) 403023)
        )
      )
    )
    (not
      (exists ((v_~a29~0_1040 Int) (quotient_2 Int) (reminder_3 Int) (quotient_4 Int) (reminder_5 Int))
        (and
          (= (* 1 reminder_3) 0)
          (<= (* 1 v_~a29~0_1040) (- 1))
          (<= (* (- 1) reminder_5) 0)
          (<= (* 1 reminder_5) 4)
          (<= (+ (* 1 ~a29~0) (* (- 1) quotient_4)) 0)
          (<= (+ (* (- 1) old(~a29~0)) (* 1 v_~a29~0_1040)) 0)
          (not
            (= (* 1 reminder_5) 0)
          )
          (= (+ (* 1 v_~a29~0_1040) (* (- 5) quotient_2) (* (- 1) reminder_5)) 0)
          (<= (+ (* (- 1) quotient_2) (* 5 quotient_4)) (- 403018))
          (<= (+ (* 1 quotient_2) (* (- 5) quotient_4)) 403022)
          (<= (+ (* (- 1) quotient_2) (* 5 reminder_3)) 2)
          (<= (+ (* 1 quotient_2) (* (- 5) reminder_3)) 2)
        )
      )
    )
    (not
      (exists ((v_~a29~0_1040 Int) (quotient_6 Int) (quotient_7 Int) (reminder_8 Int))
        (and
          (<= (* (- 1) v_~a29~0_1040) 0)
          (<= (* 1 quotient_6) 403018)
          (<= (+ (* (- 1) old(~a29~0)) (* 1 v_~a29~0_1040)) 0)
          (<= (+ (* 1 ~a29~0) (* (- 1) quotient_7)) 1)
          (not
            (= (* 1 reminder_8) 0)
          )
          (<= (+ (* (- 1) v_~a29~0_1040) (* 5 quotient_6)) 0)
          (<= (+ (* 1 v_~a29~0_1040) (* (- 5) quotient_6)) 4)
          (<= (+ (* (- 1) quotient_6) (* 5 quotient_7)) (- 403019))
          (<= (+ (* 1 quotient_6) (* (- 5) quotient_7)) 403023)
          (<= (+ (* (- 1) quotient_6) (* 5 reminder_8)) 1)
          (<= (+ (* 1 quotient_6) (* (- 5) reminder_8)) 3)
        )
      )
    )
    (not
      (exists ((v_~a29~0_1040 Int) (quotient_10 Int) (reminder_11 Int) (reminder_12 Int) (quotient_9 Int))
        (and
          (<= (* 1 v_~a29~0_1040) (- 1))
          (<= (* 1 quotient_9) 403017)
          (<= (* (- 1) reminder_12) 0)
          (<= (* 1 reminder_12) 4)
          (<= (+ (* 1 ~a29~0) (* (- 1) quotient_10)) 1)
          (<= (+ (* (- 1) old(~a29~0)) (* 1 v_~a29~0_1040)) 0)
          (not
            (= (* 1 reminder_11) 0)
          )
          (not
            (= (* 1 reminder_12) 0)
          )
          (= (+ (* 1 v_~a29~0_1040) (* (- 5) quotient_9) (* (- 1) reminder_12)) 0)
          (<= (+ (* (- 1) quotient_9) (* 5 reminder_11)) 2)
          (<= (+ (* 1 quotient_9) (* (- 5) reminder_11)) 2)
          (<= (+ (* (- 1) quotient_9) (* 5 quotient_10)) (- 403018))
          (<= (+ (* 1 quotient_9) (* (- 5) quotient_10)) 403022)
        )
      )
    )
    (not
      (exists ((v_~a29~0_1040 Int) (quotient_15 Int) (reminder_16 Int) (quotient_13 Int) (reminder_14 Int))
        (and
          (<= (* 1 quotient_13) 403018)
          (= (* 1 reminder_14) 0)
          (<= (+ (* (- 1) old(~a29~0)) (* 1 v_~a29~0_1040)) 0)
          (<= (+ (* 1 ~a29~0) (* (- 1) quotient_15)) 1)
          (not
            (= (* 1 reminder_16) 0)
          )
          (= (+ (* 1 v_~a29~0_1040) (* (- 5) quotient_13) (* (- 1) reminder_14)) 0)
          (<= (+ (* (- 1) quotient_13) (* 5 quotient_15)) (- 403019))
          (<= (+ (* 1 quotient_13) (* (- 5) quotient_15)) 403023)
          (<= (+ (* (- 1) quotient_13) (* 5 reminder_16)) 1)
          (<= (+ (* 1 quotient_13) (* (- 5) reminder_16)) 3)
        )
      )
    )
    (not
      (exists ((v_~a29~0_1040 Int) (quotient_19 Int) (quotient_17 Int) (reminder_18 Int))
        (and
          (<= (* (- 1) v_~a29~0_1040) 0)
          (= (* 1 reminder_18) 0)
          (<= (+ (* (- 1) old(~a29~0)) (* 1 v_~a29~0_1040)) 0)
          (<= (+ (* 1 ~a29~0) (* (- 1) quotient_19)) 0)
          (<= (+ (* (- 1) v_~a29~0_1040) (* 5 quotient_17)) 0)
          (<= (+ (* 1 v_~a29~0_1040) (* (- 5) quotient_17)) 4)
          (<= (+ (* (- 1) quotient_17) (* 5 reminder_18)) 1)
          (<= (+ (* 1 quotient_17) (* (- 5) reminder_18)) 3)
          (<= (+ (* (- 1) quotient_17) (* 5 quotient_19)) (- 403019))
          (<= (+ (* 1 quotient_17) (* (- 5) quotient_19)) 403023)
        )
      )
    )
    (exists ((v_~a29~0_1040 Int) (quotient_20 Int) (reminder_21 Int) (quotient_22 Int) (reminder_23 Int))
      (and
        (= (* 1 reminder_21) 0)
        (= (* 1 reminder_23) 0)
        (<= (+ (* (- 1) old(~a29~0)) (* 1 v_~a29~0_1040)) 0)
        (<= (+ (* 1 ~a29~0) (* (- 1) quotient_22)) 0)
        (= (+ (* 1 v_~a29~0_1040) (* (- 5) quotient_20) (* (- 1) reminder_23)) 0)
        (<= (+ (* (- 1) quotient_20) (* 5 reminder_21)) 1)
        (<= (+ (* 1 quotient_20) (* (- 5) reminder_21)) 3)
        (<= (+ (* (- 1) quotient_20) (* 5 quotient_22)) (- 403019))
        (<= (+ (* 1 quotient_20) (* (- 5) quotient_22)) 403023)
      )
    )
  )
)
(check-sat)

